decision_x1=[0,2];
decision_x2=[0,2];
decision_x3=[0,2];
decision_x4=[0,2];
decision_x5=[0,2];
decision_x6=[0,2];
decision_x7=[0,2];
decision_x8=[0,2];
decision_x9=[0,2];
decision_x10=[0,2];
random_y1=[0,2];
random_y2=[0,2];
random_y3=[0,2];
random_y4=[0,2];
constraint_x3_x1=[
0,0,3.6|
0,1,0.77|
0,2,0.16|
1,0,7.3|
1,1,6.3|
1,2,4|
2,0,7.4|
2,1,7.8|
2,2,8.5|
];
constraint_x3_x2=[
0,0,5.7|
0,1,1.3|
0,2,2.6|
1,0,3.2|
1,1,7.2|
1,2,4.7|
2,0,7.7|
2,1,6.6|
2,2,1.9|
];
constraint_x4_x2=[
0,0,5.1|
0,1,1.8|
0,2,10|
1,0,8.4|
1,1,3.1|
1,2,6.4|
2,0,3.6|
2,1,2.2|
2,2,0.022|
];
constraint_x4_x3=[
0,0,0.44|
0,1,8.9|
0,2,7.3|
1,0,6.3|
1,1,0.13|
1,2,4.9|
2,0,0.046|
2,1,6.3|
2,2,3|
];
constraint_x6_x1=[
0,0,6|
0,1,6.1|
0,2,2.9|
1,0,9.9|
1,1,9.1|
1,2,4.6|
2,0,9.6|
2,1,1.7|
2,2,7.9|
];
constraint_x6_x3=[
0,0,2.7|
0,1,8.1|
0,2,1.9|
1,0,8.9|
1,1,6.1|
1,2,6.2|
2,0,1.6|
2,1,5.3|
2,2,8|
];
constraint_x6_x5=[
0,0,2.2|
0,1,0.029|
0,2,4|
1,0,9|
1,1,1.7|
1,2,8.8|
2,0,5|
2,1,9.6|
2,2,3|
];
constraint_x7_x1=[
0,0,4.3|
0,1,9.5|
0,2,1|
1,0,0.83|
1,1,6.7|
1,2,6.2|
2,0,5.1|
2,1,5.3|
2,2,1.2|
];
constraint_x7_x4=[
0,0,6.4|
0,1,1.8|
0,2,7.3|
1,0,2.5|
1,1,2.8|
1,2,1.6|
2,0,2.6|
2,1,3|
2,2,7.8|
];
constraint_x8_x1=[
0,0,5|
0,1,9.3|
0,2,7.2|
1,0,1.1|
1,1,1.4|
1,2,3.1|
2,0,4.8|
2,1,9.1|
2,2,0.57|
];
constraint_x8_x4=[
0,0,1.4|
0,1,4.5|
0,2,0.63|
1,0,9.5|
1,1,0.98|
1,2,4.5|
2,0,0.49|
2,1,4.1|
2,2,6.9|
];
constraint_x8_x5=[
0,0,2.6|
0,1,7.1|
0,2,8.4|
1,0,1.2|
1,1,4|
1,2,7.8|
2,0,0.49|
2,1,4.7|
2,2,5.1|
];
constraint_x8_x7=[
0,0,4.7|
0,1,2.6|
0,2,6.4|
1,0,8.6|
1,1,5.2|
1,2,4.6|
2,0,1.3|
2,1,6.6|
2,2,5.7|
];
constraint_x9_x2=[
0,0,0.024|
0,1,8.2|
0,2,1|
1,0,4.3|
1,1,1.8|
1,2,0.17|
2,0,1|
2,1,5.4|
2,2,4.1|
];
constraint_x9_x4=[
0,0,8.9|
0,1,0.42|
0,2,6.7|
1,0,0.54|
1,1,8|
1,2,7.6|
2,0,4.2|
2,1,7|
2,2,1.3|
];
constraint_x9_x6=[
0,0,4.7|
0,1,5.9|
0,2,6.9|
1,0,5.5|
1,1,7|
1,2,5.7|
2,0,1.3|
2,1,2.1|
2,2,8.1|
];
constraint_x9_x8=[
0,0,7.8|
0,1,7.1|
0,2,6.9|
1,0,8.9|
1,1,2.8|
1,2,4.9|
2,0,4.8|
2,1,8.5|
2,2,0.54|
];
constraint_x10_x1=[
0,0,1.9|
0,1,9.6|
0,2,6.8|
1,0,3.9|
1,1,5.7|
1,2,0.067|
2,0,1.7|
2,1,1.2|
2,2,5.6|
];
constraint_x10_x4=[
0,0,6|
0,1,9.1|
0,2,4.4|
1,0,7.3|
1,1,5.9|
1,2,8.9|
2,0,1.3|
2,1,7.1|
2,2,2.6|
];
constraint_x10_x5=[
0,0,7.6|
0,1,6|
0,2,5.2|
1,0,8.5|
1,1,0.97|
1,2,9.5|
2,0,7.3|
2,1,4.9|
2,2,2.7|
];
constraint_x10_x6=[
0,0,1.3|
0,1,10|
0,2,1.5|
1,0,9.8|
1,1,1.2|
1,2,0.83|
2,0,2.3|
2,1,0.5|
2,2,1.5|
];
constraint_x10_x7=[
0,0,6.8|
0,1,8.2|
0,2,7.7|
1,0,2.7|
1,1,5|
1,2,5.9|
2,0,4.9|
2,1,7.5|
2,2,3.4|
];
constraint_x10_x8=[
0,0,4.5|
0,1,5.4|
0,2,7.1|
1,0,7.5|
1,1,7.9|
1,2,4.7|
2,0,9.6|
2,1,8.9|
2,2,8.8|
];
constraint_x1_y1=[
0,0,7|
0,1,2.3|
0,2,8.1|
1,0,7.8|
1,1,0.65|
1,2,5.3|
2,0,3.8|
2,1,2.7|
2,2,7.9|
];
constraint_x2_y2=[
0,0,3.3|
0,1,4.3|
0,2,6.5|
1,0,7.3|
1,1,9.8|
1,2,3.8|
2,0,3.3|
2,1,6.9|
2,2,8.2|
];
constraint_x3_y3=[
0,0,0.51|
0,1,5|
0,2,4.8|
1,0,6.9|
1,1,2.3|
1,2,0.87|
2,0,0.67|
2,1,4.8|
2,2,7.3|
];
constraint_x4_y4=[
0,0,8.1|
0,1,6.8|
0,2,7.1|
1,0,5.9|
1,1,3.6|
1,2,0.56|
2,0,3.6|
2,1,5.7|
2,2,4.1|
];
initial_distribution_y1=[0.011,0.55,0.43];
initial_distribution_y2=[0.25,0.24,0.51];
initial_distribution_y3=[0.094,0.48,0.43];
initial_distribution_y4=[0.3,0.61,0.086];
transition_y1=[
0.27,0.38,0.35|
0.68,0.16,0.16|
0.6,0.045,0.35|
];
transition_y2=[
0.042,0.86,0.097|
0.2,0.2,0.6|
0.33,0.65,0.027|
];
transition_y3=[
0.35,0.28,0.38|
0.083,0.51,0.41|
0.22,0.33,0.46|
];
transition_y4=[
0.069,0.51,0.42|
0.14,0.41,0.45|
0.41,0.23,0.36|
];
